     Program PWSCF v.6.7MaX starts on 27Apr2024 at 12:12:55

     R & G space division:  proc/nbgrp/npool/nimage =       8
     Reading input from pw.scf.bi2se3_01.in

     Current dimensions of program PWSCF are:
     Max number of different atomic species (ntypx) = 10
     Max number of k-points (npk) =  40000
     Max angular momentum in pseudopotentials (lmaxx) =  3
     Message from routine read_pp_mesh:
     mesh size missing, using the one in header
     Message from routine read_pp_mesh:
     mesh size missing, using the one in header

     Found symmetry operation: I + ( -0.3333  0.3333  0.3333)
     This is a supercell, fractional translations are disabled

     bravais-lattice index     =            4
     lattice parameter (alat)  =       7.8197  a.u.
     unit-cell volume          =    2850.0212 (a.u.)^3
     number of atoms/cell      =           15
     number of atomic types    =            2
     number of electrons       =       234.00
     number of Kohn-Sham states=          140
     kinetic-energy cutoff     =      40.0000  Ry
     charge density cutoff     =     160.0000  Ry
     scf convergence threshold =      3.0E-03
     mixing beta               =       0.2000
     number of iterations used =            8  plain     mixing
     Exchange-correlation= PBE
                           (   1   4   3   4   0   0   0)

     celldm(1)=   7.819686  celldm(2)=   0.000000  celldm(3)=   6.882552
     celldm(4)=   0.000000  celldm(5)=   0.000000  celldm(6)=   0.000000

     crystal axes: (cart. coord. in units of alat)
               a(1) = (   1.000000   0.000000   0.000000 )
               a(2) = (  -0.500000   0.866025   0.000000 )
               a(3) = (   0.000000   0.000000   6.882552 )

     reciprocal axes: (cart. coord. in units 2 pi/alat)
               b(1) = (  1.000000  0.577350 -0.000000 )
               b(2) = (  0.000000  1.154701  0.000000 )
               b(3) = (  0.000000 -0.000000  0.145295 )

     PseudoPot. # 1 for Bi read from file:
     ../PSEUDO/Bi.upf
     MD5 check sum: a545f56da3ca017249ac0f4a9c12ec4f
     Pseudo is Norm-conserving + core correction, Zval = 15.0
     Generated using ONCVPSP code by D. R. Hamann
     Using radial grid of 1484 points,  8 beta functions with:
                l(1) =   0
                l(2) =   0
                l(3) =   0
                l(4) =   1
                l(5) =   1
                l(6) =   2
                l(7) =   2
                l(8) =   3

     PseudoPot. # 2 for Se read from file:
     ../PSEUDO/Se.upf
     MD5 check sum: 3cc46b3642295b3f4fdae63b742ce36d
     Pseudo is Norm-conserving + core correction, Zval = 16.0
     Generated using ONCVPSP code by D. R. Hamann
     Using radial grid of 1214 points,  6 beta functions with:
                l(1) =   0
                l(2) =   0
                l(3) =   1
                l(4) =   1
                l(5) =   2
                l(6) =   2

     atomic species   valence    mass     pseudopotential
        Bi            15.00   208.98040     Bi( 1.00)
        Se            16.00    78.96000     Se( 1.00)

     12 Sym. Ops., with inversion, found

                                    s                        frac. trans.

      isym =  1     identity

 cryst.   s( 1) = (     1          0          0      )
                  (     0          1          0      )
                  (     0          0          1      )

 cart.    s( 1) = (  1.0000000  0.0000000  0.0000000 )
                  (  0.0000000  1.0000000  0.0000000 )
                  (  0.0000000  0.0000000  1.0000000 )

      isym =  2     180 deg rotation - cart. axis [1,0,0]

[...]

      isym =  3     120 deg rotation - cryst. axis [0,0,1]

[...]

      isym =  6     180 deg rotation - cryst. axis [1,1,0]

[...]

      isym =  7     inversion

[...]

      isym =  8     inv. 180 deg rotation - cart. axis [1,0,0]

[...]

      isym =  9     inv. 120 deg rotation - cryst. axis [0,0,1]

 cryst.   s( 9) = (     0         -1          0      )
                  (     1          1          0      )
                  (     0          0         -1      )

 cart.    s( 9) = (  0.5000000  0.8660254  0.0000000 )
                  ( -0.8660254  0.5000000  0.0000000 )
                  (  0.0000000  0.0000000 -1.0000000 )

[...]

 cryst.   s(10) = (     1          1          0      )
                  (    -1          0          0      )
                  (     0          0         -1      )

 cart.    s(10) = (  0.5000000 -0.8660254  0.0000000 )
                  (  0.8660254  0.5000000  0.0000000 )
                  (  0.0000000  0.0000000 -1.0000000 )

[...]

      isym = 12     inv. 180 deg rotation - cryst. axis [1,1,0]

 cryst.   s(12) = (     0         -1          0      )
                  (    -1          0          0      )
                  (     0          0          1      )

 cart.    s(12) = (  0.5000000 -0.8660254  0.0000000 )
                  ( -0.8660254 -0.5000000  0.0000000 )
                  (  0.0000000  0.0000000  1.0000000 )

     point group D_3d (-3m)
     there are  6 classes
     the character table:

       E     2C3   3C2'  i     2S6   3s_d
A_1g   1.00  1.00  1.00  1.00  1.00  1.00
A_2g   1.00  1.00 -1.00  1.00  1.00 -1.00
E_g    2.00 -1.00  0.00  2.00 -1.00  0.00
A_1u   1.00  1.00  1.00 -1.00 -1.00 -1.00
A_2u   1.00  1.00 -1.00 -1.00 -1.00  1.00
E_u    2.00 -1.00  0.00 -2.00  1.00  0.00

     the symmetry operations in each class and the name of the first element:

     E        1
          identity
     2C3      3    4
          120 deg rotation - cryst. axis [0,0,1]
     3C2'     2    5    6
          180 deg rotation - cart. axis [1,0,0]
     i        7
          inversion
     2S6      9   10
          inv. 120 deg rotation - cryst. axis [0,0,1]
     3s_d     8   11   12
          inv. 180 deg rotation - cart. axis [1,0,0]

   Cartesian axes

     site n.     atom                  positions (alat units)
         1           Bi  tau(   1) = (   0.0000000   0.0000000   2.7461382  )
         2           Bi  tau(   2) = (   0.0000000   0.0000000   4.1364138  )
         3           Bi  tau(   3) = (   0.5000000   0.2886751   5.0403220  )
         4           Bi  tau(   4) = (   0.5000000   0.2886751   6.4305976  )
         5           Bi  tau(   5) = (  -0.0000000   0.5773503   0.4519542  )
         6           Bi  tau(   6) = (  -0.0000000   0.5773503   1.8422297  )
         7           Se  tau(   7) = (   0.0000000   0.0000000   0.0000000  )
         8           Se  tau(   8) = (   0.5000000   0.2886751   2.2941841  )
         9           Se  tau(   9) = (  -0.0000000   0.5773503   4.5883681  )
        10           Se  tau(  10) = (   0.0000000   0.0000000   1.4178057  )
        11           Se  tau(  11) = (   0.0000000   0.0000000   5.4647465  )
        12           Se  tau(  12) = (   0.5000000   0.2886751   3.7119898  )
        13           Se  tau(  13) = (   0.5000000   0.2886751   0.8763782  )
        14           Se  tau(  14) = (  -0.0000000   0.5773503   6.0061736  )
        15           Se  tau(  15) = (  -0.0000000   0.5773503   3.1705622  )

   Crystallographic axes

     site n.     atom                  positions (cryst. coord.)
         1           Bi  tau(   1) = (  0.0000000  0.0000000  0.3990000  )
         2           Bi  tau(   2) = (  0.0000000  0.0000000  0.6010000  )
         3           Bi  tau(   3) = (  0.6666667  0.3333333  0.7323333  )
         4           Bi  tau(   4) = (  0.6666667  0.3333333  0.9343333  )
         5           Bi  tau(   5) = (  0.3333333  0.6666667  0.0656667  )
         6           Bi  tau(   6) = (  0.3333333  0.6666667  0.2676667  )
         7           Se  tau(   7) = (  0.0000000  0.0000000  0.0000000  )
         8           Se  tau(   8) = (  0.6666667  0.3333333  0.3333333  )
         9           Se  tau(   9) = (  0.3333333  0.6666667  0.6666667  )
        10           Se  tau(  10) = (  0.0000000  0.0000000  0.2060000  )
        11           Se  tau(  11) = (  0.0000000  0.0000000  0.7940000  )
        12           Se  tau(  12) = (  0.6666667  0.3333333  0.5393333  )
        13           Se  tau(  13) = (  0.6666667  0.3333333  0.1273333  )
        14           Se  tau(  14) = (  0.3333333  0.6666667  0.8726667  )
        15           Se  tau(  15) = (  0.3333333  0.6666667  0.4606667  )

     number of k points=     8  Marzari-Vanderbilt smearing, width (Ry)=  0.0073
                       cart. coord. in units 2pi/alat
        k(    1) = (   0.0000000   0.0000000   0.0000000), wk =   0.0625000
        k(    2) = (   0.0000000   0.0000000  -0.0726475), wk =   0.0625000
        k(    3) = (   0.0000000   0.2886751   0.0000000), wk =   0.3750000
        k(    4) = (   0.0000000   0.2886751  -0.0726475), wk =   0.3750000
        k(    5) = (   0.0000000  -0.5773503   0.0000000), wk =   0.1875000
        k(    6) = (   0.0000000  -0.5773503  -0.0726475), wk =   0.1875000
        k(    7) = (   0.2500000   0.4330127   0.0000000), wk =   0.3750000
        k(    8) = (   0.2500000   0.4330127  -0.0726475), wk =   0.3750000

                       cryst. coord.
        k(    1) = (   0.0000000   0.0000000   0.0000000), wk =   0.0625000
        k(    2) = (   0.0000000   0.0000000  -0.5000000), wk =   0.0625000
        k(    3) = (   0.0000000   0.2500000   0.0000000), wk =   0.3750000
        k(    4) = (   0.0000000   0.2500000  -0.5000000), wk =   0.3750000
        k(    5) = (   0.0000000  -0.5000000   0.0000000), wk =   0.1875000
        k(    6) = (   0.0000000  -0.5000000  -0.5000000), wk =   0.1875000
        k(    7) = (   0.2500000   0.2500000   0.0000000), wk =   0.3750000
        k(    8) = (   0.2500000   0.2500000  -0.5000000), wk =   0.3750000

     Initial potential from superposition of free atoms

     starting charge  233.99427, renormalised to  234.00000

     negative rho (up, down):  2.760E-03 0.000E+00
     Starting wfcs are  135 randomized atomic wfcs +    5 random wfcs

     Self-consistent Calculation

     iteration #  1     ecut=    40.00 Ry     beta= 0.20
     Davidson diagonalization with overlap
     ethr =  1.00E-02,  avg # of iterations =  9.0

     negative rho (up, down):  1.935E-03 0.000E+00

     total energy              =   -3129.08759855 Ry
     estimated scf accuracy    <       6.90726957 Ry

[...]

     negative rho (up, down):  3.133E-05 0.000E+00

[...]

     total energy              =   -3127.18209405 Ry
     estimated scf accuracy    <       0.03277516 Ry

     iteration #  7     ecut=    40.00 Ry     beta= 0.20
     Davidson diagonalization with overlap
     ethr =  6.60E-06,  avg # of iterations = 10.4

     End of self-consistent calculation

          k = 0.0000 0.0000 0.0000 ( 12115 PWs)   bands (ev):

   -38.7466 -38.7466 -38.7456 -38.7456 -38.6637 -38.6637 -38.5499 -38.5338
   -38.5338 -38.4944 -38.4944 -38.4873 -38.4873 -38.4168 -38.4090 -38.2564
   -38.2564 -38.1519 -38.1519 -38.1506 -38.1506 -38.0855 -38.0855 -38.0853
   -38.0853 -38.0675 -38.0675 -38.0224 -38.0224 -38.0153 -37.9868 -37.9749
   -37.9721 -37.9721 -37.9623 -37.9623 -37.9199 -37.8374 -37.8374 -37.7203
   -37.7203 -37.7114 -37.7061 -37.7061 -37.6951 -13.0829 -13.0829 -13.0825
   -13.0825 -13.0746 -13.0746 -13.0722 -13.0722 -13.0689 -13.0689 -13.0687
   -13.0668 -13.0668 -13.0658 -13.0620 -13.0620 -13.0615 -13.0615 -13.0608
   -13.0570 -13.0570 -13.0531 -13.0460 -13.0446 -13.0372 -13.0372 -13.0365
   -13.0365 -13.0287 -13.0287  -6.2462  -6.2009  -6.1971  -5.5082  -5.5075
    -5.3716  -3.8384  -3.5074  -3.5042  -2.4660  -2.4606  -1.7629  -1.6410
    -1.1728  -1.1671   6.7011   6.7050   7.0001   7.0953   7.4334   7.4334
     7.4366   7.4366   7.4473   7.4473   7.4766   7.4817   8.0473   8.0473
     8.1194   8.1194   8.1341   8.1341   8.6069   8.6069   8.6194   8.6194
     8.7319   8.7319   8.7579   8.7662   9.1750   9.7905  10.3803  10.3812
    11.0272  11.0272  11.2633  11.2633  11.2661  11.2661  11.7390  11.7415
    12.1504  12.2288  12.2288  12.2319  12.2319  12.4831  12.4831  15.5182
    15.5225  15.6394  16.0734  16.1930

     occupation numbers
     1.0000   1.0000   1.0000   1.0000   1.0000   1.0000   1.0000   1.0000
     1.0000   1.0000   1.0000   1.0000   1.0000   1.0000   1.0000   1.0000
     1.0000   1.0000   1.0000   1.0000   1.0000   1.0000   1.0000   1.0000
     1.0000   1.0000   1.0000   1.0000   1.0000   1.0000   1.0000   1.0000
     1.0000   1.0000   1.0000   1.0000   1.0000   1.0000   1.0000   1.0000
     1.0000   1.0000   1.0000   1.0000   1.0000   1.0000   1.0000   1.0000
     1.0000   1.0000   1.0000   1.0000   1.0000   1.0000   1.0000   1.0000
     1.0000   1.0000   1.0000   1.0000   1.0000   1.0000   1.0000   1.0000
     1.0000   1.0000   1.0000   1.0000   1.0000   1.0000   1.0000   1.0000
     1.0000   1.0000   1.0000   1.0000   1.0000   1.0000   1.0000   1.0000
     1.0000   1.0000   1.0000   1.0000   1.0000   1.0000   1.0000   1.0000
     1.0000   1.0000   1.0000   1.0000   1.0000   1.0000   1.0000   1.0000
     1.0000   1.0000   1.0000   1.0000   1.0000   1.0000   1.0000   1.0000
     1.0000   1.0000   1.0000   1.0000   1.0000   1.0000   1.0000   1.0000
     1.0000   1.0000   1.0000   1.0000   0.9483   0.0000   0.0000   0.0000
     0.0000   0.0000   0.0000   0.0000   0.0000   0.0000   0.0000   0.0000
     0.0000   0.0000   0.0000   0.0000   0.0000   0.0000   0.0000   0.0000
     0.0000   0.0000   0.0000   0.0000

[...]

          k = 0.2500 0.4330-0.0726 ( 12214 PWs)   bands (ev):

   -38.7531 -38.7481 -38.7310 -38.6834 -38.6832 -38.6709 -38.6190 -38.6177
   -38.5931 -38.5890 -38.5728 -38.5658 -38.5635 -38.5475 -38.4982 -38.3746
   -38.3607 -38.3012 -38.2951 -38.2937 -38.2674 -38.2596 -38.2493 -38.2419
   -38.2186 -38.2057 -38.1587 -38.1524 -38.1297 -38.1198 -38.1140 -38.0821
   -38.0725 -38.0639 -38.0486 -38.0368 -38.0293 -38.0223 -38.0060 -37.9977
   -37.9963 -37.9480 -37.8934 -37.8890 -37.8755 -13.0912 -13.0900 -13.0816
   -13.0797 -13.0796 -13.0774 -13.0752 -13.0750 -13.0720 -13.0719 -13.0687
   -13.0686 -13.0681 -13.0662 -13.0646 -13.0625 -13.0621 -13.0590 -13.0589
   -13.0588 -13.0531 -13.0507 -13.0479 -13.0471 -13.0467 -13.0438 -13.0413
   -13.0404 -13.0387 -13.0361  -4.8291  -4.8275  -4.8054  -4.4882  -4.4535
    -4.4529  -3.3864  -3.3830  -3.3524  -2.9381  -2.9109  -2.8956  -2.6341
    -2.6264  -2.6047   4.7743   4.7745   4.8974   4.8977   5.0044   5.0559
     5.5571   5.7862   5.7922   5.9162   5.9574   6.2383   6.2384   6.6114
     6.6150   7.0473   7.0512   7.4530   7.4541   7.6090   7.8323   8.1814
     8.1836   8.5294   8.6436   8.6712   8.6785  10.7750  11.2370  11.2383
    11.2787  11.3583  11.3602  12.0400  12.2923  12.2935  12.7185  12.8821
    12.8833  13.2716  13.2723  13.5763  13.7669  13.7690  13.9617  15.5705
    15.5705  15.6851  15.7825  15.8070

     occupation numbers
     1.0000   1.0000   1.0000   1.0000   1.0000   1.0000   1.0000   1.0000
     1.0000   1.0000   1.0000   1.0000   1.0000   1.0000   1.0000   1.0000
     1.0000   1.0000   1.0000   1.0000   1.0000   1.0000   1.0000   1.0000
     1.0000   1.0000   1.0000   1.0000   1.0000   1.0000   1.0000   1.0000
     1.0000   1.0000   1.0000   1.0000   1.0000   1.0000   1.0000   1.0000
     1.0000   1.0000   1.0000   1.0000   1.0000   1.0000   1.0000   1.0000
     1.0000   1.0000   1.0000   1.0000   1.0000   1.0000   1.0000   1.0000
     1.0000   1.0000   1.0000   1.0000   1.0000   1.0000   1.0000   1.0000
     1.0000   1.0000   1.0000   1.0000   1.0000   1.0000   1.0000   1.0000
     1.0000   1.0000   1.0000   1.0000   1.0000   1.0000   1.0000   1.0000
     1.0000   1.0000   1.0000   1.0000   1.0000   1.0000   1.0000   1.0000
     1.0000   1.0000   1.0000   1.0000   1.0000   1.0000   1.0000   1.0000
     1.0000   1.0000   1.0000   1.0000   1.0000   1.0000   1.0000   1.0000
     1.0000   1.0000   1.0000   1.0000   1.0000   1.0000   1.0000   1.0000
     1.0000   1.0000   1.0000   1.0000   1.0000   0.0000   0.0000   0.0000
     0.0000   0.0000   0.0000   0.0000   0.0000   0.0000   0.0000   0.0000
     0.0000   0.0000   0.0000   0.0000   0.0000   0.0000   0.0000   0.0000
     0.0000   0.0000   0.0000   0.0000

     the Fermi energy is     9.2551 ev

!    total energy              =   -3127.18230414 Ry
     estimated scf accuracy    <       0.00274940 Ry
     smearing contrib. (-TS)   =       0.00008515 Ry
     internal energy E=F+TS    =   -3127.18238929 Ry

     The total energy is F=E-TS. E is the sum of the following terms:
     one-electron contribution =   -1447.33995490 Ry
     hartree contribution      =     800.17134049 Ry
     xc contribution           =    -680.02440068 Ry
     ewald contribution        =   -1799.98937420 Ry

     convergence has been achieved in   7 iterations

     Writing output data file ./tmp/bi2se3-01.save/

     General routines

     Parallel routines

   This run was terminated on:  12:18:35  27Apr2024

   JOB DONE.