     Program PWSCF v.6.7MaX starts on 22Mar2024 at 16:20:27

     R & G space division:  proc/nbgrp/npool/nimage =       8
     Reading input from graphene.scf.in

     Current dimensions of program PWSCF are:
     Max number of different atomic species (ntypx) = 10
     Max number of k-points (npk) =  40000
     Max angular momentum in pseudopotentials (lmaxx) =  3
     Message from routine read_pp_mesh:
     mesh size missing, using the one in header
     Message from routine set_cutoff:
     ecutrho < 4*ecutwfc, are you sure?

     Message from routine setup:
     using ibrav=0 with symmetry is DISCOURAGED, use correct ibrav instead

     bravais-lattice index     =            0
     lattice parameter (alat)  =       4.6506  a.u.
     unit-cell volume          =     708.4381 (a.u.)^3
     number of atoms/cell      =            2
     number of atomic types    =            1
     number of electrons       =         8.00
     number of Kohn-Sham states=            8
     kinetic-energy cutoff     =      90.0000  Ry
     charge density cutoff     =     180.0000  Ry
     scf convergence threshold =      1.0E-06
     mixing beta               =       0.5000
     number of iterations used =            8  plain     mixing
     Exchange-correlation= PBE
                           (   1   4   3   4   0   0   0)

     celldm(1)=   4.650616  celldm(2)=   0.000000  celldm(3)=   0.000000
     celldm(4)=   0.000000  celldm(5)=   0.000000  celldm(6)=   0.000000

     crystal axes: (cart. coord. in units of alat)
               a(1) = (   1.000000   0.000000   0.000000 )
               a(2) = (  -0.500000   0.866667   0.000000 )
               a(3) = (   0.000000   0.000000   8.126778 )

     reciprocal axes: (cart. coord. in units 2 pi/alat)
               b(1) = (  1.000000  0.576923 -0.000000 )
               b(2) = (  0.000000  1.153846  0.000000 )
               b(3) = (  0.000000 -0.000000  0.123050 )

     PseudoPot. # 1 for C  read from file:
     ./PSEUDO/C.upf
     MD5 check sum: 34a24e64c0a39f27c6c36b90a16ac686
     Pseudo is Norm-conserving + core correction, Zval =  4.0
     Generated using ONCVPSP code by D. R. Hamann
     Using radial grid of 1248 points,  4 beta functions with:
                l(1) =   0
                l(2) =   0
                l(3) =   1
                l(4) =   1

     atomic species   valence    mass     pseudopotential
        C              4.00    12.01100     C ( 1.00)

      4 Sym. Ops. (no inversion) found

                                    s                        frac. trans.

      isym =  1     identity

 cryst.   s( 1) = (     1          0          0      )
                  (     0          1          0      )
                  (     0          0          1      )

 cart.    s( 1) = (  1.0000000  0.0000000  0.0000000 )
                  (  0.0000000  1.0000000  0.0000000 )
                  (  0.0000000  0.0000000  1.0000000 )

      isym =  2     180 deg rotation - cart. axis [0,1,0]

[...]

      isym =  3     inv. 180 deg rotation - cart. axis [0,0,1]

[...]

      isym =  4     inv. 180 deg rotation - cart. axis [1,0,0]

 cryst.   s( 4) = (    -1          0          0      )
                  (     1          1          0      )
                  (     0          0          1      )

 cart.    s( 4) = ( -1.0000000  0.0000000  0.0000000 )
                  (  0.0000000  1.0000000  0.0000000 )
                  (  0.0000000  0.0000000  1.0000000 )

   Cartesian axes

     site n.     atom                  positions (alat units)
         1           C   tau(   1) = (   0.5000000   0.2886751   4.0633889  )
         2           C   tau(   2) = (   0.0000000   0.5773503   4.0633889  )

   Crystallographic axes

     site n.     atom                  positions (cryst. coord.)
         1           C   tau(   1) = (  0.6665433  0.3330867  0.5000000  )
         2           C   tau(   2) = (  0.3330867  0.6661734  0.5000000  )

     number of k points=   186  Gaussian smearing, width (Ry)=  0.0020
                       cart. coord. in units 2pi/alat
        k(    1) = (   0.0000000   0.0000000   0.0000000), wk =   0.0020000
        k(    2) = (   0.0000000   0.0000000   0.0123050), wk =   0.0040000
        k(    3) = (   0.0000000   0.0000000   0.0246100), wk =   0.0040000
        k(    4) = (   0.0000000   0.0000000   0.0369150), wk =   0.0040000
        k(    5) = (   0.0000000   0.0000000   0.0492200), wk =   0.0040000
        k(    6) = (   0.0000000   0.0000000  -0.0615250), wk =   0.0020000
        k(    7) = (   0.0000000   0.1153846   0.0000000), wk =   0.0040000
        k(    8) = (   0.0000000   0.1153846   0.0123050), wk =   0.0080000
        k(    9) = (   0.0000000   0.1153846   0.0246100), wk =   0.0080000
        k(   10) = (   0.0000000   0.1153846   0.0369150), wk =   0.0080000
        k(   11) = (   0.0000000   0.1153846   0.0492200), wk =   0.0080000
        k(   12) = (   0.0000000   0.1153846  -0.0615250), wk =   0.0040000
        k(   13) = (   0.0000000   0.2307692   0.0000000), wk =   0.0040000
        k(   14) = (   0.0000000   0.2307692   0.0123050), wk =   0.0080000
        k(   15) = (   0.0000000   0.2307692   0.0246100), wk =   0.0080000
        k(   16) = (   0.0000000   0.2307692   0.0369150), wk =   0.0080000
        k(   17) = (   0.0000000   0.2307692   0.0492200), wk =   0.0080000
        k(   18) = (   0.0000000   0.2307692  -0.0615250), wk =   0.0040000
        k(   19) = (   0.0000000   0.3461538   0.0000000), wk =   0.0040000
        k(   20) = (   0.0000000   0.3461538   0.0123050), wk =   0.0080000
        k(   21) = (   0.0000000   0.3461538   0.0246100), wk =   0.0080000
        k(   22) = (   0.0000000   0.3461538   0.0369150), wk =   0.0080000
        k(   23) = (   0.0000000   0.3461538   0.0492200), wk =   0.0080000
        k(   24) = (   0.0000000   0.3461538  -0.0615250), wk =   0.0040000
        k(   25) = (   0.0000000   0.4615385   0.0000000), wk =   0.0040000
        k(   26) = (   0.0000000   0.4615385   0.0123050), wk =   0.0080000
        k(   27) = (   0.0000000   0.4615385   0.0246100), wk =   0.0080000
        k(   28) = (   0.0000000   0.4615385   0.0369150), wk =   0.0080000
        k(   29) = (   0.0000000   0.4615385   0.0492200), wk =   0.0080000
        k(   30) = (   0.0000000   0.4615385  -0.0615250), wk =   0.0040000
        k(   31) = (   0.0000000  -0.5769231   0.0000000), wk =   0.0020000
        k(   32) = (   0.0000000  -0.5769231   0.0123050), wk =   0.0040000
        k(   33) = (   0.0000000  -0.5769231   0.0246100), wk =   0.0040000
        k(   34) = (   0.0000000  -0.5769231   0.0369150), wk =   0.0040000
        k(   35) = (   0.0000000  -0.5769231   0.0492200), wk =   0.0040000
        k(   36) = (   0.0000000  -0.5769231  -0.0615250), wk =   0.0020000
        k(   37) = (   0.1000000   0.0576923   0.0000000), wk =   0.0080000
        k(   38) = (   0.1000000   0.0576923   0.0123050), wk =   0.0160000
        k(   39) = (   0.1000000   0.0576923   0.0246100), wk =   0.0160000
        k(   40) = (   0.1000000   0.0576923   0.0369150), wk =   0.0160000
        k(   41) = (   0.1000000   0.0576923   0.0492200), wk =   0.0160000
        k(   42) = (   0.1000000   0.0576923  -0.0615250), wk =   0.0080000
        k(   43) = (   0.1000000   0.1730769   0.0000000), wk =   0.0080000
        k(   44) = (   0.1000000   0.1730769   0.0123050), wk =   0.0160000
        k(   45) = (   0.1000000   0.1730769   0.0246100), wk =   0.0160000
        k(   46) = (   0.1000000   0.1730769   0.0369150), wk =   0.0160000
        k(   47) = (   0.1000000   0.1730769   0.0492200), wk =   0.0160000
        k(   48) = (   0.1000000   0.1730769  -0.0615250), wk =   0.0080000
        k(   49) = (   0.1000000   0.2884615   0.0000000), wk =   0.0080000
        k(   50) = (   0.1000000   0.2884615   0.0123050), wk =   0.0160000
        k(   51) = (   0.1000000   0.2884615   0.0246100), wk =   0.0160000
        k(   52) = (   0.1000000   0.2884615   0.0369150), wk =   0.0160000
        k(   53) = (   0.1000000   0.2884615   0.0492200), wk =   0.0160000
        k(   54) = (   0.1000000   0.2884615  -0.0615250), wk =   0.0080000
        k(   55) = (   0.1000000   0.4038462   0.0000000), wk =   0.0080000
        k(   56) = (   0.1000000   0.4038462   0.0123050), wk =   0.0160000
        k(   57) = (   0.1000000   0.4038462   0.0246100), wk =   0.0160000
        k(   58) = (   0.1000000   0.4038462   0.0369150), wk =   0.0160000
        k(   59) = (   0.1000000   0.4038462   0.0492200), wk =   0.0160000
        k(   60) = (   0.1000000   0.4038462  -0.0615250), wk =   0.0080000
[...]
        k(  172) = (  -0.5000000  -0.2884615   0.0369150), wk =   0.0080000
        k(  173) = (  -0.5000000  -0.2884615   0.0492200), wk =   0.0080000
        k(  174) = (  -0.5000000  -0.2884615  -0.0615250), wk =   0.0040000
        k(  175) = (  -0.5000000  -0.1730769   0.0000000), wk =   0.0080000
        k(  176) = (  -0.5000000  -0.1730769   0.0123050), wk =   0.0160000
        k(  177) = (  -0.5000000  -0.1730769   0.0246100), wk =   0.0160000
        k(  178) = (  -0.5000000  -0.1730769   0.0369150), wk =   0.0160000
        k(  179) = (  -0.5000000  -0.1730769   0.0492200), wk =   0.0160000
        k(  180) = (  -0.5000000  -0.1730769  -0.0615250), wk =   0.0080000
        k(  181) = (  -0.5000000  -0.0576923   0.0000000), wk =   0.0080000
        k(  182) = (  -0.5000000  -0.0576923   0.0123050), wk =   0.0160000
        k(  183) = (  -0.5000000  -0.0576923   0.0246100), wk =   0.0160000
        k(  184) = (  -0.5000000  -0.0576923   0.0369150), wk =   0.0160000
        k(  185) = (  -0.5000000  -0.0576923   0.0492200), wk =   0.0160000
        k(  186) = (  -0.5000000  -0.0576923  -0.0615250), wk =   0.0080000

                       cryst. coord.
        k(    1) = (   0.0000000   0.0000000   0.0000000), wk =   0.0020000
        k(    2) = (   0.0000000   0.0000000   0.1000000), wk =   0.0040000
        k(    3) = (   0.0000000   0.0000000   0.2000000), wk =   0.0040000
        k(    4) = (   0.0000000   0.0000000   0.3000000), wk =   0.0040000
        k(    5) = (   0.0000000   0.0000000   0.4000000), wk =   0.0040000
        k(    6) = (   0.0000000   0.0000000  -0.5000000), wk =   0.0020000
        k(    7) = (   0.0000000   0.1000000   0.0000000), wk =   0.0040000
        k(    8) = (   0.0000000   0.1000000   0.1000000), wk =   0.0080000
        k(    9) = (   0.0000000   0.1000000   0.2000000), wk =   0.0080000
        k(   10) = (   0.0000000   0.1000000   0.3000000), wk =   0.0080000
        k(   11) = (   0.0000000   0.1000000   0.4000000), wk =   0.0080000
        k(   12) = (   0.0000000   0.1000000  -0.5000000), wk =   0.0040000
        k(   13) = (   0.0000000   0.2000000   0.0000000), wk =   0.0040000
        k(   14) = (   0.0000000   0.2000000   0.1000000), wk =   0.0080000
        k(   15) = (   0.0000000   0.2000000   0.2000000), wk =   0.0080000
        k(   16) = (   0.0000000   0.2000000   0.3000000), wk =   0.0080000
        k(   17) = (   0.0000000   0.2000000   0.4000000), wk =   0.0080000
        k(   18) = (   0.0000000   0.2000000  -0.5000000), wk =   0.0040000
        k(   19) = (   0.0000000   0.3000000   0.0000000), wk =   0.0040000
        k(   20) = (   0.0000000   0.3000000   0.1000000), wk =   0.0080000
        k(   21) = (   0.0000000   0.3000000   0.2000000), wk =   0.0080000
        k(   22) = (   0.0000000   0.3000000   0.3000000), wk =   0.0080000
        k(   23) = (   0.0000000   0.3000000   0.4000000), wk =   0.0080000
        k(   24) = (   0.0000000   0.3000000  -0.5000000), wk =   0.0040000
        k(   25) = (   0.0000000   0.4000000   0.0000000), wk =   0.0040000
        k(   26) = (   0.0000000   0.4000000   0.1000000), wk =   0.0080000
        k(   27) = (   0.0000000   0.4000000   0.2000000), wk =   0.0080000
        k(   28) = (   0.0000000   0.4000000   0.3000000), wk =   0.0080000
        k(   29) = (   0.0000000   0.4000000   0.4000000), wk =   0.0080000
        k(   30) = (   0.0000000   0.4000000  -0.5000000), wk =   0.0040000
        k(   31) = (   0.0000000  -0.5000000   0.0000000), wk =   0.0020000
        k(   32) = (   0.0000000  -0.5000000   0.1000000), wk =   0.0040000
        k(   33) = (   0.0000000  -0.5000000   0.2000000), wk =   0.0040000
        k(   34) = (   0.0000000  -0.5000000   0.3000000), wk =   0.0040000
        k(   35) = (   0.0000000  -0.5000000   0.4000000), wk =   0.0040000
        k(   36) = (   0.0000000  -0.5000000  -0.5000000), wk =   0.0020000
        k(   37) = (   0.1000000   0.0000000   0.0000000), wk =   0.0080000
        k(   38) = (   0.1000000   0.0000000   0.1000000), wk =   0.0160000
        k(   39) = (   0.1000000   0.0000000   0.2000000), wk =   0.0160000
        k(   40) = (   0.1000000   0.0000000   0.3000000), wk =   0.0160000
        k(   41) = (   0.1000000   0.0000000   0.4000000), wk =   0.0160000
        k(   42) = (   0.1000000   0.0000000  -0.5000000), wk =   0.0080000
        k(   43) = (   0.1000000   0.1000000   0.0000000), wk =   0.0080000
        k(   44) = (   0.1000000   0.1000000   0.1000000), wk =   0.0160000
        k(   45) = (   0.1000000   0.1000000   0.2000000), wk =   0.0160000
        k(   46) = (   0.1000000   0.1000000   0.3000000), wk =   0.0160000
        k(   47) = (   0.1000000   0.1000000   0.4000000), wk =   0.0160000
        k(   48) = (   0.1000000   0.1000000  -0.5000000), wk =   0.0080000
        k(   49) = (   0.1000000   0.2000000   0.0000000), wk =   0.0080000
        k(   50) = (   0.1000000   0.2000000   0.1000000), wk =   0.0160000
        k(   51) = (   0.1000000   0.2000000   0.2000000), wk =   0.0160000
        k(   52) = (   0.1000000   0.2000000   0.3000000), wk =   0.0160000
        k(   53) = (   0.1000000   0.2000000   0.4000000), wk =   0.0160000
        k(   54) = (   0.1000000   0.2000000  -0.5000000), wk =   0.0080000
        k(   55) = (   0.1000000   0.3000000   0.0000000), wk =   0.0080000
        k(   56) = (   0.1000000   0.3000000   0.1000000), wk =   0.0160000
        k(   57) = (   0.1000000   0.3000000   0.2000000), wk =   0.0160000
        k(   58) = (   0.1000000   0.3000000   0.3000000), wk =   0.0160000
        k(   59) = (   0.1000000   0.3000000   0.4000000), wk =   0.0160000
        k(   60) = (   0.1000000   0.3000000  -0.5000000), wk =   0.0080000
[...]
        k(  172) = (  -0.5000000   0.0000000   0.3000000), wk =   0.0080000
        k(  173) = (  -0.5000000   0.0000000   0.4000000), wk =   0.0080000
        k(  174) = (  -0.5000000   0.0000000  -0.5000000), wk =   0.0040000
        k(  175) = (  -0.5000000   0.1000000   0.0000000), wk =   0.0080000
        k(  176) = (  -0.5000000   0.1000000   0.1000000), wk =   0.0160000
        k(  177) = (  -0.5000000   0.1000000   0.2000000), wk =   0.0160000
        k(  178) = (  -0.5000000   0.1000000   0.3000000), wk =   0.0160000
        k(  179) = (  -0.5000000   0.1000000   0.4000000), wk =   0.0160000
        k(  180) = (  -0.5000000   0.1000000  -0.5000000), wk =   0.0080000
        k(  181) = (  -0.5000000   0.2000000   0.0000000), wk =   0.0080000
        k(  182) = (  -0.5000000   0.2000000   0.1000000), wk =   0.0160000
        k(  183) = (  -0.5000000   0.2000000   0.2000000), wk =   0.0160000
        k(  184) = (  -0.5000000   0.2000000   0.3000000), wk =   0.0160000
        k(  185) = (  -0.5000000   0.2000000   0.4000000), wk =   0.0160000
        k(  186) = (  -0.5000000   0.2000000  -0.5000000), wk =   0.0080000

     Initial potential from superposition of free atoms

     starting charge    7.99991, renormalised to    8.00000

     negative rho (up, down):  2.740E-04 0.000E+00
     Starting wfcs are random

     Self-consistent Calculation

     iteration #  1     ecut=    90.00 Ry     beta= 0.50
     Davidson diagonalization with overlap
     ethr =  1.00E-02,  avg # of iterations = 11.3

     negative rho (up, down):  2.017E-04 0.000E+00

     total energy              =     -24.08459185 Ry
     estimated scf accuracy    <       0.18525086 Ry

[...]

     iteration #  3     ecut=    90.00 Ry     beta= 0.50
     Davidson diagonalization with overlap
     ethr =  2.60E-04,  avg # of iterations =  6.1

[...]

     iteration #  4     ecut=    90.00 Ry     beta= 0.50
     Davidson diagonalization with overlap
     c_bands:  1 eigenvalues not converged
     c_bands:  1 eigenvalues not converged
     c_bands:  2 eigenvalues not converged
     c_bands:  1 eigenvalues not converged
     c_bands:  1 eigenvalues not converged
     c_bands:  1 eigenvalues not converged
     c_bands:  1 eigenvalues not converged
     c_bands:  1 eigenvalues not converged
     c_bands:  1 eigenvalues not converged
     c_bands:  1 eigenvalues not converged
     c_bands:  1 eigenvalues not converged
     c_bands:  2 eigenvalues not converged
     c_bands:  1 eigenvalues not converged
     c_bands:  1 eigenvalues not converged
     c_bands:  1 eigenvalues not converged
     c_bands:  1 eigenvalues not converged
     c_bands:  1 eigenvalues not converged
     c_bands:  1 eigenvalues not converged
     c_bands:  1 eigenvalues not converged
     c_bands:  1 eigenvalues not converged
     c_bands:  1 eigenvalues not converged
     c_bands:  1 eigenvalues not converged
     c_bands:  1 eigenvalues not converged
     c_bands:  1 eigenvalues not converged
     c_bands:  1 eigenvalues not converged
     c_bands:  1 eigenvalues not converged
     c_bands:  1 eigenvalues not converged
     c_bands:  1 eigenvalues not converged
     c_bands:  1 eigenvalues not converged
     ethr =  8.03E-06,  avg # of iterations = 10.3

[...]

     total energy              =     -24.09608506 Ry
     estimated scf accuracy    <       0.00023307 Ry

     iteration #  5     ecut=    90.00 Ry     beta= 0.50
     Davidson diagonalization with overlap
     c_bands:  1 eigenvalues not converged
     c_bands:  1 eigenvalues not converged
     c_bands:  1 eigenvalues not converged
     c_bands:  1 eigenvalues not converged
     c_bands:  1 eigenvalues not converged
     c_bands:  1 eigenvalues not converged
     ethr =  2.91E-06,  avg # of iterations =  5.7

     negative rho (up, down):  3.672E-04 0.000E+00

     End of self-consistent calculation

          k = 0.0000 0.0000 0.0000 ( 10045 PWs)   bands (ev):

   -21.9114  -9.9937  -5.3948  -5.3820   0.8564   1.5241   1.6600   2.6666

     occupation numbers
     1.0000   1.0000   1.0000   1.0000   0.0000   0.0000   0.0000   0.0000

[...]

          k = 0.4000 0.0000-0.0615 ( 10258 PWs)   bands (ev):

[...]

          k =-0.5000-0.2885 0.0000 ( 10232 PWs)   bands (ev):

[...]

          k =-0.5000-0.0577-0.0615 ( 10252 PWs)   bands (ev):

   -17.5619 -13.3147 -10.9175  -5.0473   0.3806   6.9465   7.5293   8.0600

     occupation numbers
     1.0000   1.0000   1.0000   1.0000   0.0000   0.0000   0.0000   0.0000

     the Fermi energy is    -1.4902 ev

!    total energy              =     -24.09612656 Ry
     estimated scf accuracy    <       0.00000022 Ry
     smearing contrib. (-TS)   =      -0.00000000 Ry
     internal energy E=F+TS    =     -24.09612656 Ry

     The total energy is F=E-TS. E is the sum of the following terms:
     one-electron contribution =    -224.73763694 Ry
     hartree contribution      =     113.68280222 Ry
     xc contribution           =      -8.58640784 Ry
     ewald contribution        =      95.54511600 Ry

     convergence has been achieved in   5 iterations

     Writing output data file ./tmp/VLAB.save/

     General routines

     Parallel routines

   This run was terminated on:  16:21:29  22Mar2024

   JOB DONE.